(set-info :source |printed by MathSAT|)
(declare-fun hhv_ULTIMATE.start_L18_0_Int () Int)
(declare-fun .x.309 () Int)
(declare-fun hbv_ULTIMATE.start_L30-4_1_Array_Int_Int () (Array Int Int))
(declare-fun .x.310 () (Array Int Int))
(declare-fun hhv_ULTIMATE.start_L18_2_Array_Int_Int () (Array Int Int))
(declare-fun .x.311 () (Array Int Int))
(declare-fun hhv_ULTIMATE.start_L18_3_Array_Int_Array_Int_Int () (Array Int (Array Int Int)))
(declare-fun .x.312 () (Array Int (Array Int Int)))
(declare-fun hhv_ULTIMATE.start_L18_4_Array_Int_Array_Int_Int () (Array Int (Array Int Int)))
(declare-fun .x.313 () (Array Int (Array Int Int)))
(declare-fun hhv_ULTIMATE.start_L18_5_Int () Int)
(declare-fun .x.314 () Int)
(declare-fun hhv_ULTIMATE.start_L18_6_Int () Int)
(declare-fun .x.315 () Int)
(declare-fun hhv_ULTIMATE.start_L18_7_Array_Int_Int () (Array Int Int))
(declare-fun .x.316 () (Array Int Int))
(declare-fun hhv_ULTIMATE.start_L18_8_Array_Int_Int () (Array Int Int))
(declare-fun .x.317 () (Array Int Int))
(declare-fun hhv_ULTIMATE.start_L18_9_Int () Int)
(declare-fun .x.318 () Int)
(declare-fun hhv_ULTIMATE.start_L18_10_Int () Int)
(declare-fun .x.319 () Int)
(declare-fun hbv_ULTIMATE.start_L30-4_11_Int () Int)
(declare-fun .x.320 () Int)
(declare-fun hhv_ULTIMATE.start_L18_12_Int () Int)
(declare-fun .x.321 () Int)
(declare-fun hhv_ULTIMATE.start_L18_13_Bool () Bool)
(declare-fun .x.322 () Bool)
(declare-fun hhv_ULTIMATE.start_L18_14_Int () Int)
(declare-fun .x.323 () Int)
(declare-fun hhv_ULTIMATE.start_L18_15_Int () Int)
(declare-fun .x.324 () Int)
(declare-fun hhv_ULTIMATE.start_L18_16_Int () Int)
(declare-fun .x.325 () Int)
(declare-fun hhv_ULTIMATE.start_L18_17_Int () Int)
(declare-fun .x.326 () Int)
(declare-fun hhv_ULTIMATE.start_L18_18_Int () Int)
(declare-fun .x.327 () Int)
(declare-fun hbv_ULTIMATE.start_L30-4_19_Int () Int)
(declare-fun .x.328 () Int)
(declare-fun hhv_ULTIMATE.start_L18_20_Int () Int)
(declare-fun .x.329 () Int)
(declare-fun hhv_ULTIMATE.start_L18_21_Int () Int)
(declare-fun .x.330 () Int)
(declare-fun hhv_ULTIMATE.start_L18_22_Int () Int)
(declare-fun .x.331 () Int)
(declare-fun hhv_ULTIMATE.start_L18_23_Bool () Bool)
(declare-fun .x.332 () Bool)
(declare-fun .loc.4 () Bool)
(declare-fun .loc.7 () Bool)
(declare-fun .loc.5 () Bool)
(declare-fun .loc.8 () Bool)
(declare-fun .loc.6 () Bool)
(declare-fun .loc.9 () Bool)
(declare-fun hbv_ULTIMATE.start_L-1_1_Array_Int_Int () (Array Int Int))
(declare-fun hbv_ULTIMATE.start_L31_13_Bool_0 () Bool)
(define-fun .def_8 () Int (! hhv_ULTIMATE.start_L18_0_Int :next |.x.309|))
(define-fun .def_10 () (Array Int Int) (! hbv_ULTIMATE.start_L30-4_1_Array_Int_Int :next |.x.310|))
(define-fun .def_12 () (Array Int Int) (! hhv_ULTIMATE.start_L18_2_Array_Int_Int :next |.x.311|))
(define-fun .def_14 () (Array Int (Array Int Int)) (! hhv_ULTIMATE.start_L18_3_Array_Int_Array_Int_Int :next |.x.312|))
(define-fun .def_16 () (Array Int (Array Int Int)) (! hhv_ULTIMATE.start_L18_4_Array_Int_Array_Int_Int :next |.x.313|))
(define-fun .def_18 () Int (! hhv_ULTIMATE.start_L18_5_Int :next |.x.314|))
(define-fun .def_20 () Int (! hhv_ULTIMATE.start_L18_6_Int :next |.x.315|))
(define-fun .def_22 () (Array Int Int) (! hhv_ULTIMATE.start_L18_7_Array_Int_Int :next |.x.316|))
(define-fun .def_24 () (Array Int Int) (! hhv_ULTIMATE.start_L18_8_Array_Int_Int :next |.x.317|))
(define-fun .def_26 () Int (! hhv_ULTIMATE.start_L18_9_Int :next |.x.318|))
(define-fun .def_28 () Int (! hhv_ULTIMATE.start_L18_10_Int :next |.x.319|))
(define-fun .def_30 () Int (! hbv_ULTIMATE.start_L30-4_11_Int :next |.x.320|))
(define-fun .def_32 () Int (! hhv_ULTIMATE.start_L18_12_Int :next |.x.321|))
(define-fun .def_34 () Bool (! hhv_ULTIMATE.start_L18_13_Bool :next |.x.322|))
(define-fun .def_36 () Int (! hhv_ULTIMATE.start_L18_14_Int :next |.x.323|))
(define-fun .def_38 () Int (! hhv_ULTIMATE.start_L18_15_Int :next |.x.324|))
(define-fun .def_40 () Int (! hhv_ULTIMATE.start_L18_16_Int :next |.x.325|))
(define-fun .def_42 () Int (! hhv_ULTIMATE.start_L18_17_Int :next |.x.326|))
(define-fun .def_44 () Int (! hhv_ULTIMATE.start_L18_18_Int :next |.x.327|))
(define-fun .def_46 () Int (! hbv_ULTIMATE.start_L30-4_19_Int :next |.x.328|))
(define-fun .def_48 () Int (! hhv_ULTIMATE.start_L18_20_Int :next |.x.329|))
(define-fun .def_50 () Int (! hhv_ULTIMATE.start_L18_21_Int :next |.x.330|))
(define-fun .def_52 () Int (! hhv_ULTIMATE.start_L18_22_Int :next |.x.331|))
(define-fun .def_54 () Bool (! hhv_ULTIMATE.start_L18_23_Bool :next |.x.332|))
(define-fun .def_56 () Bool (! .loc.4 :next |.loc.7|))
(define-fun .def_58 () Bool (! .loc.5 :next |.loc.8|))
(define-fun .def_60 () Bool (! .loc.6 :next |.loc.9|))
(define-fun .def_82 () (Array Int Int) (! hbv_ULTIMATE.start_L-1_1_Array_Int_Int :next |.xtv.1|))
(define-fun .def_316 () Bool (! hbv_ULTIMATE.start_L31_13_Bool_0 :next |.xtv.2|))
(define-fun .def_70 () Bool (not .def_56))
(define-fun .def_444 () Bool (and .def_58 .def_70))
(define-fun .def_74 () Bool (not .def_60))
(define-fun .def_445 () Bool (and .def_74 .def_444))
(define-fun .def_438 () Bool (= .def_10 .def_12))
(define-fun .def_437 () Bool (= .def_22 .def_24))
(define-fun .def_439 () Bool (and .def_437 .def_438))
(define-fun .def_436 () Bool (= .def_18 .def_20))
(define-fun .def_440 () Bool (and .def_436 .def_439))
(define-fun .def_435 () Bool (= .def_26 .def_28))
(define-fun .def_441 () Bool (and .def_435 .def_440))
(define-fun .def_434 () Bool (= .def_14 .def_16))
(define-fun .def_442 () Bool (and .def_434 .def_441))
(define-fun .def_433 () Bool (not .def_54))
(define-fun .def_443 () Bool (and .def_433 .def_442))
(define-fun .def_446 () Bool (! (and .def_443 .def_445) :init true))
(define-fun .def_430 () Bool (= .def_28 .x.319))
(define-fun .def_428 () Bool (= .def_24 .x.317))
(define-fun .def_426 () Bool (= .def_20 .x.315))
(define-fun .def_424 () Bool (= .def_16 .x.313))
(define-fun .def_422 () Bool (= .def_8 .x.309))
(define-fun .def_421 () Bool (= .def_12 .x.311))
(define-fun .def_423 () Bool (and .def_421 .def_422))
(define-fun .def_425 () Bool (and .def_423 .def_424))
(define-fun .def_427 () Bool (and .def_425 .def_426))
(define-fun .def_429 () Bool (and .def_427 .def_428))
(define-fun .def_431 () Bool (and .def_429 .def_430))
(define-fun .def_397 () Bool (= .x.325 .x.330))
(define-fun .def_398 () Bool (or .x.332 .def_397))
(define-fun .def_391 () (Array Int Int) (store .def_10 .def_30 0))
(define-fun .def_392 () Bool (= .x.310 .def_391))
(define-fun .def_393 () Bool (or .def_54 .def_392))
(define-fun .def_62 () Bool (= .def_38 .x.324))
(define-fun .def_394 () Bool (and .def_62 .def_393))
(define-fun .def_65 () Bool (= .def_48 .x.329))
(define-fun .def_395 () Bool (and .def_65 .def_394))
(define-fun .def_67 () Bool (= .def_54 .x.332))
(define-fun .def_396 () Bool (and .def_67 .def_395))
(define-fun .def_399 () Bool (and .def_396 .def_398))
(define-fun .def_400 () Bool (and .def_58 .def_399))
(define-fun .def_401 () Bool (and .def_60 .def_400))
(define-fun .def_174 () Bool (= .x.324 0))
(define-fun .def_384 () Bool (or .def_54 .def_174))
(define-fun .def_382 () Bool (and .x.332 .def_74))
(define-fun .def_138 () Bool (not .def_58))
(define-fun .def_383 () Bool (and .def_138 .def_382))
(define-fun .def_385 () Bool (and .def_383 .def_384))
(define-fun .def_76 () Bool (= .def_50 .x.330))
(define-fun .def_386 () Bool (and .def_76 .def_385))
(define-fun .def_141 () Bool (= .def_46 .x.328))
(define-fun .def_387 () Bool (and .def_141 .def_386))
(define-fun .def_143 () Bool (= .def_30 .x.320))
(define-fun .def_388 () Bool (and .def_143 .def_387))
(define-fun .def_145 () Bool (= .def_10 .x.310))
(define-fun .def_389 () Bool (and .def_145 .def_388))
(define-fun .def_149 () Bool (= .x.324 .x.329))
(define-fun .def_147 () Int (ite .def_34 1 0))
(define-fun .def_148 () Bool (= .x.329 .def_147))
(define-fun .def_150 () Bool (and .def_148 .def_149))
(define-fun .def_151 () Bool (or .def_54 .def_150))
(define-fun .def_390 () Bool (and .def_151 .def_389))
(define-fun .def_402 () Bool (or .def_390 .def_401))
(define-fun .def_381 () Bool (and .loc.7 .def_70))
(define-fun .def_403 () Bool (and .def_381 .def_402))
(define-fun .def_370 () Bool (and .def_54 .def_62))
(define-fun .def_371 () Bool (and .def_65 .def_370))
(define-fun .def_372 () Bool (and .def_67 .def_371))
(define-fun .def_373 () Bool (and .def_56 .def_372))
(define-fun .def_374 () Bool (and .def_60 .def_373))
(define-fun .def_375 () Bool (and .def_138 .def_374))
(define-fun .def_376 () Bool (and .def_76 .def_375))
(define-fun .def_377 () Bool (and .def_141 .def_376))
(define-fun .def_378 () Bool (and .def_143 .def_377))
(define-fun .def_379 () Bool (and .def_145 .def_378))
(define-fun .def_243 () Bool (not .loc.7))
(define-fun .def_380 () Bool (and .def_243 .def_379))
(define-fun .def_404 () Bool (or .def_380 .def_403))
(define-fun .def_278 () Bool (and .def_62 .def_65))
(define-fun .def_279 () Bool (and .def_67 .def_278))
(define-fun .def_280 () Bool (and .def_56 .def_279))
(define-fun .def_320 () Bool (and .def_60 .def_280))
(define-fun .def_321 () Bool (and .def_138 .def_320))
(define-fun .def_322 () Bool (and .def_76 .def_321))
(define-fun .def_323 () Bool (and .def_141 .def_322))
(define-fun .def_324 () Bool (and .def_143 .def_323))
(define-fun .def_325 () Bool (and .def_145 .def_324))
(define-fun .def_326 () Bool (and .def_243 .def_325))
(define-fun .def_200 () Real (* (/ 1 4294967296) (to_real .def_32)))
(define-fun .def_201 () Int (to_int .def_200))
(define-fun .def_203 () Int (* (- 4294967296) .def_201))
(define-fun .def_204 () Int (+ .def_32 .def_203))
(define-fun .def_221 () Bool (<= 10000 .def_204))
(define-fun .def_245 () Bool (or .def_54 .def_221))
(define-fun .def_369 () Bool (and .def_245 .def_326))
(define-fun .def_405 () Bool (or .def_369 .def_404))
(define-fun .def_129 () Bool (= .def_42 .x.326))
(define-fun .def_125 () Bool (= .def_34 .x.322))
(define-fun .def_366 () Bool (and .def_125 .def_129))
(define-fun .def_367 () Bool (and .loc.8 .def_366))
(define-fun .def_368 () Bool (and .loc.9 .def_367))
(define-fun .def_406 () Bool (and .def_368 .def_405))
(define-fun .def_334 () Real (* (/ 1 4294967296) (to_real .x.326)))
(define-fun .def_335 () Int (to_int .def_334))
(define-fun .def_337 () Int (* 4294967296 .def_335))
(define-fun .def_331 () Real (* (/ 1 2147483648) (to_real .def_32)))
(define-fun .def_332 () Int (to_int .def_331))
(define-fun .def_333 () Int (* (- 4294967296) .def_332))
(define-fun .def_338 () Int (+ .def_333 .def_337))
(define-fun .def_339 () Int (* (- 1) .x.326))
(define-fun .def_344 () Int (+ .def_339 .def_338))
(define-fun .def_342 () Int (* 2 .def_32))
(define-fun .def_345 () Int (+ .def_342 .def_344))
(define-fun .def_346 () Bool (= .def_345 0))
(define-fun .def_348 () Bool (not .def_346))
(define-fun .def_299 () Bool (not .x.322))
(define-fun .def_360 () Bool (and .def_299 .def_348))
(define-fun .def_359 () Bool (and .x.322 .def_346))
(define-fun .def_361 () Bool (or .def_359 .def_360))
(define-fun .def_222 () Bool (not .def_221))
(define-fun .def_362 () Bool (and .def_222 .def_361))
(define-fun .def_205 () Int (+ (- 4294967296) .def_204))
(define-fun .def_207 () Bool (<= .def_204 2147483647))
(define-fun .def_208 () Int (ite .def_207 .def_204 .def_205))
(define-fun .def_210 () Int (* 4 .def_208))
(define-fun .def_211 () Int (+ .def_46 .def_210))
(define-fun .def_212 () (Array Int Int) (select .def_14 .def_30))
(define-fun .def_352 () Int (select .def_212 .def_211))
(define-fun .def_353 () Bool (= .x.326 .def_352))
(define-fun .def_363 () Bool (and .def_353 .def_362))
(define-fun .def_364 () Bool (or .def_54 .def_363))
(define-fun .def_357 () Bool (or .x.322 .x.332))
(define-fun .def_78 () Bool (not .loc.9))
(define-fun .def_327 () Bool (and .def_78 .def_326))
(define-fun .def_154 () Bool (not .loc.8))
(define-fun .def_328 () Bool (and .def_154 .def_327))
(define-fun .def_358 () Bool (and .def_328 .def_357))
(define-fun .def_365 () Bool (and .def_358 .def_364))
(define-fun .def_407 () Bool (or .def_365 .def_406))
(define-fun .def_133 () Bool (= .def_52 .x.331))
(define-fun .def_408 () Bool (and .def_133 .def_407))
(define-fun .def_317 () Bool (not .def_316))
(define-fun .def_349 () Bool (and .def_317 .def_348))
(define-fun .def_347 () Bool (and .def_316 .def_346))
(define-fun .def_350 () Bool (or .def_347 .def_349))
(define-fun .def_351 () Bool (and .def_222 .def_350))
(define-fun .def_354 () Bool (and .def_351 .def_353))
(define-fun .def_355 () Bool (or .def_54 .def_354))
(define-fun .def_303 () Real (* (/ 1 4294967296) (to_real .x.321)))
(define-fun .def_304 () Int (to_int .def_303))
(define-fun .def_305 () Int (* (- 4294967296) .def_304))
(define-fun .def_306 () Int (+ .x.321 .def_305))
(define-fun .def_307 () Int (+ (- 4294967296) .def_306))
(define-fun .def_308 () Bool (<= .def_306 2147483647))
(define-fun .def_309 () Int (ite .def_308 .def_306 .def_307))
(define-fun .def_310 () Int (* 4 .def_309))
(define-fun .def_311 () Int (+ .x.328 .def_310))
(define-fun .def_312 () (Array Int Int) (select .x.312 .x.320))
(define-fun .def_313 () Int (select .def_312 .def_311))
(define-fun .def_314 () Bool (= .x.331 .def_313))
(define-fun .def_293 () Real (* (/ 1 4294967296) (to_real .x.331)))
(define-fun .def_294 () Int (to_int .def_293))
(define-fun .def_295 () Int (* (- 4294967296) .def_294))
(define-fun .def_296 () Int (+ .x.331 .def_295))
(define-fun .def_297 () Bool (= .def_296 0))
(define-fun .def_301 () Bool (and .x.322 .def_297))
(define-fun .def_298 () Bool (not .def_297))
(define-fun .def_300 () Bool (and .def_298 .def_299))
(define-fun .def_302 () Bool (or .def_300 .def_301))
(define-fun .def_315 () Bool (and .def_302 .def_314))
(define-fun .def_318 () Bool (and .def_315 .def_317))
(define-fun .def_319 () Bool (or .x.332 .def_318))
(define-fun .def_329 () Bool (and .def_319 .def_328))
(define-fun .def_356 () Bool (and .def_329 .def_355))
(define-fun .def_409 () Bool (or .def_356 .def_408))
(define-fun .def_131 () Bool (= .def_44 .x.327))
(define-fun .def_123 () Bool (= .def_32 .x.321))
(define-fun .def_292 () Bool (and .def_123 .def_131))
(define-fun .def_410 () Bool (and .def_292 .def_409))
(define-fun .def_216 () Int (* (- 1) .x.321))
(define-fun .def_217 () Int (+ .def_32 .def_216))
(define-fun .def_218 () Bool (= .def_217 (- 1)))
(define-fun .def_290 () Bool (or .x.332 .def_218))
(define-fun .def_281 () Bool (and .loc.7 .def_280))
(define-fun .def_282 () Bool (and .loc.9 .def_281))
(define-fun .def_283 () Bool (and .def_74 .def_282))
(define-fun .def_284 () Bool (and .def_138 .def_283))
(define-fun .def_285 () Bool (and .def_76 .def_284))
(define-fun .def_286 () Bool (and .def_141 .def_285))
(define-fun .def_287 () Bool (and .def_143 .def_286))
(define-fun .def_288 () Bool (and .def_145 .def_287))
(define-fun .def_289 () Bool (and .def_154 .def_288))
(define-fun .def_291 () Bool (and .def_289 .def_290))
(define-fun .def_411 () Bool (or .def_291 .def_410))
(define-fun .def_99 () Bool (= .x.321 0))
(define-fun .def_276 () Bool (or .def_54 .def_99))
(define-fun .def_178 () Bool (and .def_62 .def_125))
(define-fun .def_179 () Bool (and .def_129 .def_178))
(define-fun .def_180 () Bool (and .def_131 .def_179))
(define-fun .def_181 () Bool (and .def_65 .def_180))
(define-fun .def_182 () Bool (and .def_133 .def_181))
(define-fun .def_183 () Bool (and .def_67 .def_182))
(define-fun .def_266 () Bool (and .def_60 .def_183))
(define-fun .def_267 () Bool (and .def_70 .def_266))
(define-fun .def_268 () Bool (and .loc.7 .def_267))
(define-fun .def_269 () Bool (and .loc.9 .def_268))
(define-fun .def_270 () Bool (and .def_138 .def_269))
(define-fun .def_271 () Bool (and .def_76 .def_270))
(define-fun .def_272 () Bool (and .def_141 .def_271))
(define-fun .def_273 () Bool (and .def_143 .def_272))
(define-fun .def_274 () Bool (and .def_145 .def_273))
(define-fun .def_275 () Bool (and .def_154 .def_274))
(define-fun .def_277 () Bool (and .def_275 .def_276))
(define-fun .def_412 () Bool (or .def_277 .def_411))
(define-fun .def_248 () Bool (and .def_54 .def_123))
(define-fun .def_249 () Bool (and .def_125 .def_248))
(define-fun .def_250 () Bool (and .def_62 .def_249))
(define-fun .def_251 () Bool (and .def_129 .def_250))
(define-fun .def_252 () Bool (and .def_131 .def_251))
(define-fun .def_253 () Bool (and .def_65 .def_252))
(define-fun .def_254 () Bool (and .def_133 .def_253))
(define-fun .def_255 () Bool (and .def_67 .def_254))
(define-fun .def_256 () Bool (and .def_56 .def_255))
(define-fun .def_257 () Bool (and .def_58 .def_256))
(define-fun .def_258 () Bool (and .loc.9 .def_257))
(define-fun .def_259 () Bool (and .def_74 .def_258))
(define-fun .def_260 () Bool (and .def_76 .def_259))
(define-fun .def_261 () Bool (and .def_141 .def_260))
(define-fun .def_262 () Bool (and .def_143 .def_261))
(define-fun .def_263 () Bool (and .def_145 .def_262))
(define-fun .def_264 () Bool (and .def_243 .def_263))
(define-fun .def_265 () Bool (and .def_154 .def_264))
(define-fun .def_413 () Bool (or .def_265 .def_412))
(define-fun .def_228 () Bool (and .def_123 .def_125))
(define-fun .def_229 () Bool (and .def_62 .def_228))
(define-fun .def_230 () Bool (and .def_129 .def_229))
(define-fun .def_231 () Bool (and .def_131 .def_230))
(define-fun .def_232 () Bool (and .def_65 .def_231))
(define-fun .def_233 () Bool (and .def_133 .def_232))
(define-fun .def_234 () Bool (and .def_67 .def_233))
(define-fun .def_235 () Bool (and .def_56 .def_234))
(define-fun .def_236 () Bool (and .def_58 .def_235))
(define-fun .def_237 () Bool (and .loc.9 .def_236))
(define-fun .def_238 () Bool (and .def_74 .def_237))
(define-fun .def_239 () Bool (and .def_76 .def_238))
(define-fun .def_240 () Bool (and .def_141 .def_239))
(define-fun .def_241 () Bool (and .def_143 .def_240))
(define-fun .def_242 () Bool (and .def_145 .def_241))
(define-fun .def_244 () Bool (and .def_242 .def_243))
(define-fun .def_246 () Bool (and .def_244 .def_245))
(define-fun .def_247 () Bool (and .def_154 .def_246))
(define-fun .def_414 () Bool (or .def_247 .def_413))
(define-fun .def_127 () Bool (= .def_36 .x.323))
(define-fun .def_63 () Bool (= .def_14 .x.312))
(define-fun .def_227 () Bool (and .def_63 .def_127))
(define-fun .def_415 () Bool (and .def_227 .def_414))
(define-fun .def_213 () (Array Int Int) (store .def_212 .def_211 .def_36))
(define-fun .def_214 () (Array Int (Array Int Int)) (store .def_14 .def_30 .def_213))
(define-fun .def_215 () Bool (= .x.312 .def_214))
(define-fun .def_219 () Bool (and .def_215 .def_218))
(define-fun .def_223 () Bool (and .def_219 .def_222))
(define-fun .def_196 () Int (* (- 1) .x.323))
(define-fun .def_197 () Int (+ .def_36 .def_196))
(define-fun .def_198 () Bool (= .def_197 (- 2)))
(define-fun .def_224 () Bool (and .def_198 .def_223))
(define-fun .def_225 () Bool (or .def_54 .def_224))
(define-fun .def_184 () Bool (and .def_56 .def_183))
(define-fun .def_185 () Bool (and .def_58 .def_184))
(define-fun .def_186 () Bool (and .loc.7 .def_185))
(define-fun .def_187 () Bool (and .loc.8 .def_186))
(define-fun .def_188 () Bool (and .def_74 .def_187))
(define-fun .def_189 () Bool (and .def_76 .def_188))
(define-fun .def_190 () Bool (and .def_141 .def_189))
(define-fun .def_191 () Bool (and .def_143 .def_190))
(define-fun .def_192 () Bool (and .def_145 .def_191))
(define-fun .def_193 () Bool (and .def_78 .def_192))
(define-fun .def_226 () Bool (and .def_193 .def_225))
(define-fun .def_416 () Bool (or .def_226 .def_415))
(define-fun .def_175 () Bool (not .def_174))
(define-fun .def_176 () Bool (or .x.332 .def_175))
(define-fun .def_156 () Bool (and .def_63 .def_123))
(define-fun .def_157 () Bool (and .def_125 .def_156))
(define-fun .def_158 () Bool (and .def_127 .def_157))
(define-fun .def_159 () Bool (and .def_129 .def_158))
(define-fun .def_160 () Bool (and .def_131 .def_159))
(define-fun .def_161 () Bool (and .def_133 .def_160))
(define-fun .def_162 () Bool (and .def_67 .def_161))
(define-fun .def_163 () Bool (and .def_70 .def_162))
(define-fun .def_164 () Bool (and .loc.7 .def_163))
(define-fun .def_165 () Bool (and .def_74 .def_164))
(define-fun .def_166 () Bool (and .def_138 .def_165))
(define-fun .def_167 () Bool (and .def_76 .def_166))
(define-fun .def_168 () Bool (and .def_141 .def_167))
(define-fun .def_169 () Bool (and .def_143 .def_168))
(define-fun .def_170 () Bool (and .def_145 .def_169))
(define-fun .def_171 () Bool (and .def_151 .def_170))
(define-fun .def_172 () Bool (and .def_78 .def_171))
(define-fun .def_173 () Bool (and .def_154 .def_172))
(define-fun .def_177 () Bool (and .def_173 .def_176))
(define-fun .def_417 () Bool (or .def_177 .def_416))
(define-fun .def_121 () Bool (and .def_54 .x.332))
(define-fun .def_122 () Bool (and .def_63 .def_121))
(define-fun .def_124 () Bool (and .def_122 .def_123))
(define-fun .def_126 () Bool (and .def_124 .def_125))
(define-fun .def_128 () Bool (and .def_126 .def_127))
(define-fun .def_130 () Bool (and .def_128 .def_129))
(define-fun .def_132 () Bool (and .def_130 .def_131))
(define-fun .def_134 () Bool (and .def_132 .def_133))
(define-fun .def_135 () Bool (and .def_70 .def_134))
(define-fun .def_136 () Bool (and .loc.7 .def_135))
(define-fun .def_137 () Bool (and .def_74 .def_136))
(define-fun .def_139 () Bool (and .def_137 .def_138))
(define-fun .def_140 () Bool (and .def_76 .def_139))
(define-fun .def_142 () Bool (and .def_140 .def_141))
(define-fun .def_144 () Bool (and .def_142 .def_143))
(define-fun .def_146 () Bool (and .def_144 .def_145))
(define-fun .def_152 () Bool (and .def_146 .def_151))
(define-fun .def_153 () Bool (and .def_78 .def_152))
(define-fun .def_155 () Bool (and .def_153 .def_154))
(define-fun .def_418 () Bool (or .def_155 .def_417))
(define-fun .def_119 () Bool (= .def_40 .x.325))
(define-fun .def_117 () Bool (= .def_26 .x.318))
(define-fun .def_115 () Bool (= .def_18 .x.314))
(define-fun .def_114 () Bool (= .def_22 .x.316))
(define-fun .def_116 () Bool (and .def_114 .def_115))
(define-fun .def_118 () Bool (and .def_116 .def_117))
(define-fun .def_120 () Bool (and .def_118 .def_119))
(define-fun .def_419 () Bool (and .def_120 .def_418))
(define-fun .def_109 () Bool (= .x.314 0))
(define-fun .def_108 () Bool (= .x.318 0))
(define-fun .def_110 () Bool (and .def_108 .def_109))
(define-fun .def_106 () (Array Int Int) (store .def_10 0 0))
(define-fun .def_107 () Bool (= .def_82 .def_106))
(define-fun .def_111 () Bool (and .def_107 .def_110))
(define-fun .def_112 () Bool (or .def_54 .def_111))
(define-fun .def_94 () Bool (<= .x.309 .x.320))
(define-fun .def_95 () Bool (not .def_94))
(define-fun .def_92 () Bool (= .x.320 0))
(define-fun .def_93 () Bool (not .def_92))
(define-fun .def_96 () Bool (and .def_93 .def_95))
(define-fun .def_90 () (Array Int Int) (store .def_82 .x.320 1))
(define-fun .def_91 () Bool (= .x.310 .def_90))
(define-fun .def_97 () Bool (and .def_91 .def_96))
(define-fun .def_87 () (Array Int Int) (store .def_22 .x.320 40000))
(define-fun .def_88 () Bool (= .x.316 .def_87))
(define-fun .def_98 () Bool (and .def_88 .def_97))
(define-fun .def_100 () Bool (and .def_98 .def_99))
(define-fun .def_85 () Bool (= .x.328 0))
(define-fun .def_101 () Bool (and .def_85 .def_100))
(define-fun .def_83 () Int (select .def_82 .x.320))
(define-fun .def_84 () Bool (= .def_83 0))
(define-fun .def_102 () Bool (and .def_84 .def_101))
(define-fun .def_81 () Bool (= .x.323 0))
(define-fun .def_103 () Bool (and .def_81 .def_102))
(define-fun .def_104 () Bool (or .x.332 .def_103))
(define-fun .def_64 () Bool (and .def_62 .def_63))
(define-fun .def_66 () Bool (and .def_64 .def_65))
(define-fun .def_68 () Bool (and .def_66 .def_67))
(define-fun .def_69 () Bool (and .def_58 .def_68))
(define-fun .def_71 () Bool (and .def_69 .def_70))
(define-fun .def_72 () Bool (and .loc.7 .def_71))
(define-fun .def_73 () Bool (and .loc.8 .def_72))
(define-fun .def_75 () Bool (and .def_73 .def_74))
(define-fun .def_77 () Bool (and .def_75 .def_76))
(define-fun .def_79 () Bool (and .def_77 .def_78))
(define-fun .def_105 () Bool (and .def_79 .def_104))
(define-fun .def_113 () Bool (and .def_105 .def_112))
(define-fun .def_420 () Bool (or .def_113 .def_419))
(define-fun .def_432 () Bool (! (and .def_420 .def_431) :trans true))
(define-fun .def_447 () Bool (and .def_56 .def_58))
(define-fun .def_448 () Bool (and .def_60 .def_447))
(define-fun .def_449 () Bool (and .def_54 .def_448))
(define-fun .def_450 () Bool (! (not .def_449) :invar-property 0))
(assert true)
